
Gurobi 13.0.1 (mac64[arm], Python) logging started Fri Apr 17 12:53:59 2026

Set parameter LogToConsole to value 0
Set parameter Username
Set parameter LicenseID to value 2799845
Set parameter LogFile to value "/Users/monitsharma/SMU-Quantum-Repos/quantum-optimization-benchmarks/classical_solutions/results/mdkp/logs/hpp__hp2_solver.log"
Academic license - for non-commercial use only - expires 2027-03-30
Set parameter TimeLimit to value 3600
Set parameter Threads to value 0
Set parameter MIPGap to value 0
Set parameter MIPFocus to value 0
Set parameter DisplayInterval to value 5
Gurobi Optimizer version 13.0.1 build v13.0.1rc0 (mac64[arm] - Darwin 25.4.0 25E253)

CPU model: Apple M3 Pro
Thread count: 12 physical cores, 12 logical processors, using up to 12 threads

Non-default parameters:
TimeLimit  3600
MIPGap  0
LogToConsole  0

Optimize a model with 4 rows, 35 columns and 121 nonzeros (Max)
Model fingerprint: 0xcdd8d6a8
Model has 35 linear objective coefficients
Variable types: 0 continuous, 35 integer (35 binary)
Coefficient statistics:
  Matrix range     [1e+00, 9e+01]
  Objective range  [2e+01, 1e+03]
  Bounds range     [1e+00, 1e+00]
  RHS range        [2e+02, 2e+02]

Found heuristic solution: objective 2528.0000000
Presolve time: 0.00s
Presolved: 4 rows, 35 columns, 121 nonzeros
Variable types: 0 continuous, 35 integer (35 binary)

Root relaxation: objective 3.261821e+03, 8 iterations, 0.00 seconds (0.00 work units)

    Nodes    |    Current Node    |     Objective Bounds      |     Work
 Expl Unexpl |  Obj  Depth IntInf | Incumbent    BestBd   Gap | It/Node Time

     0     0 3261.82123    0    4 2528.00000 3261.82123  29.0%     -    0s
H    0     0                    2884.0000000 3261.82123  13.1%     -    0s
H    0     0                    3148.0000000 3261.82123  3.62%     -    0s
H    0     0                    3153.0000000 3241.40381  2.80%     -    0s
H    0     0                    3156.0000000 3241.40381  2.71%     -    0s
H    0     0                    3158.0000000 3241.40381  2.64%     -    0s
H    0     0                    3159.0000000 3241.40381  2.61%     -    0s
     0     0 3200.40625    0    6 3159.00000 3200.40625  1.31%     -    0s
     0     0 3188.09804    0    6 3159.00000 3188.09804  0.92%     -    0s
H    0     0                    3164.0000000 3188.09804  0.76%     -    0s
H    0     0                    3170.0000000 3188.09804  0.57%     -    0s
     0     0 3188.09804    0    7 3170.00000 3188.09804  0.57%     -    0s
H    0     0                    3186.0000000 3188.09804  0.07%     -    0s

Cutting planes:
  Gomory: 1
  Cover: 2
  StrongCG: 1

Explored 1 nodes (15 simplex iterations) in 0.00 seconds (0.00 work units)
Thread count was 12 (of 12 available processors)

Solution count 10: 3186 3170 3164 ... 2528

Optimal solution found (tolerance 0.00e+00)
Best objective 3.186000000000e+03, best bound 3.186000000000e+03, gap 0.0000%
